N = 10;
H = 6;
T = 2;

avail = array3d(1..N, 1..H, 1..T, [6, 10, 10, 1, 5, 5, 5, 8, 5, 7, 9, 7, 6, 3, 10, 2, 10, 9, 4, 10, 10, 8, 10, 4, 2, 1, 10, 8, 9, 1, 10, 8, 0, 7, 4, 6, 9, 8, 8, 2, 5, 1, 10, 8, 10, 2, 10, 2, 3, 8, 3, 3, 1, 10, 2, 6, 5, 3, 9, 6, 1, 6, 0, 9, 8, 0, 1, 8, 9, 4, 1, 6, 4, 3, 2, 2, 8, 10, 6, 0, 1, 7, 10, 10, 1, 0, 6, 10, 7, 0, 1, 8, 6, 0, 5, 8, 10, 8, 2, 9, 10, 1, 9, 8, 6, 9, 9, 10, 7, 5, 6, 2, 6, 5, 7, 10, 4, 8, 0, 0]);

r = array2d(1..H, 1..T, [0, 2, 5, 2, 4, 4, 1, 2, 1, 4, 3, 4]);
